c 
c G(k,n,p) graph
c graph gen seed     : 421
c number of vertices : 25
c max number of edges: 500
c number of classes  : 2
c edge density       : 0.800000
c edge probability   : 1.600000
c data structure     : dense
c
c           Graph Stats
c number of vertices  : 25
c nonisolated vertices: 25
c number of edges     : 154
c edge density        : 0.513333
c max degree          : 14
c avg degree          : 12.32
c min degree          : 11
p col 25 154
e 1 3
e 1 4
e 1 6
e 1 11
e 1 12
e 1 15
e 1 16
e 1 17
e 1 19
e 1 20
e 1 21
e 1 23
e 1 24
e 2 5
e 2 7
e 2 8
e 2 9
e 2 10
e 2 13
e 2 14
e 2 18
e 2 22
e 2 25
e 3 4
e 3 6
e 3 11
e 3 12
e 3 15
e 3 16
e 3 17
e 3 19
e 3 20
e 3 21
e 3 23
e 3 24
e 4 6
e 4 11
e 4 12
e 4 15
e 4 16
e 4 17
e 4 19
e 4 20
e 4 21
e 4 23
e 4 24
e 5 7
e 5 8
e 5 9
e 5 10
e 5 13
e 5 14
e 5 18
e 5 22
e 5 25
e 6 11
e 6 12
e 6 15
e 6 16
e 6 17
e 6 19
e 6 20
e 6 21
e 6 23
e 6 24
e 7 8
e 7 9
e 7 10
e 7 13
e 7 14
e 7 18
e 7 22
e 7 25
e 8 9
e 8 10
e 8 13
e 8 14
e 8 18
e 8 22
e 8 25
e 9 10
e 9 13
e 9 14
e 9 18
e 9 22
e 9 25
e 10 13
e 10 14
e 10 18
e 10 22
e 10 25
e 11 12
e 11 15
e 11 16
e 11 17
e 11 19
e 11 20
e 11 21
e 11 23
e 11 24
e 12 15
e 12 16
e 12 17
e 12 19
e 12 20
e 12 21
e 12 23
e 12 24
e 13 14
e 13 18
e 13 22
e 13 25
e 14 18
e 14 22
e 14 25
e 15 16
e 15 17
e 15 19
e 15 20
e 15 21
e 15 23
e 15 24
e 16 17
e 16 19
e 16 20
e 16 21
e 16 23
e 16 24
e 17 19
e 17 20
e 17 21
e 17 23
e 17 24
e 18 22
e 18 25
e 19 20
e 19 21
e 19 23
e 19 24
e 20 21
e 20 23
e 20 24
e 21 23
e 21 24
e 22 25
e 23 24
